NAME : XML100_1272_25
DIMENSION : 101
NB_CLUSTERS : 3
CLUSTERING_ALG : DBSCAN
CLUSTERING_PARAMS : eps(81), minSamples(3)
CLUSTERS
1 0
2 1 3 4 6 8 9 10 11 12 13 14 15 16 17 18 20 21 22 23 24 25 26 27 28 29 30 31 32 34 35 37 38 39 40 41 42 43 45 48 49 50 52 55 56 57 58 59 60 61 62 63 65 66 67 68 69 71 72 74 75 77 78 79 80 81 82 84 85 86 87 90 91 92 93 94 95 96 98 100
3 2 5 7 19 33 36 44 46 47 51 53 54 64 70 73 76 83 88 89 97 99
EOF